; benchmark generated from python API
(set-info :status unknown)
(declare-datatypes ((RealState 0)) (((RMk1 (rval1 Real)) (RMk2 (rval2 Real)))))
 (assert
 (forall ((|v11:0| Real) )(forall ((|v10:1| Real) )(forall ((|v9:2| Real) )(forall ((|v8:3| Real) )(exists ((|v7:4_st| RealState) (val!4268 Real) )(exists ((|v6:5_st| RealState) (val!4269 Real) )(exists ((|v5:6_st| RealState) (val!4270 Real) )(exists ((|v4:7_st| RealState) (val!4271 Real) )(forall ((|v3:8| Real) )(forall ((|v2:9| Real) )(forall ((|v1:10| Real) )(forall ((|v0:11| Real) )(let ((?x2487 (* 13.0 |v1:10|)))
 (let ((?x2100 (+ (+ (+ (* 20.0 (rval2 |v6:5_st|)) (* 4.0 |v8:3|)) (* 7.0 |v11:0|)) ?x2487)))
 (let ((?x2583 (- 5.0)))
 (let ((?x581 (- 16.0)))
 (let ((?x1670 (* ?x581 |v8:3|)))
 (let ((?x934 (rval2 |v6:5_st|)))
 (let ((?x90 (* 12.0 ?x934)))
 (let ((?x1726 (+ (+ (+ (* (- 1.0) (rval2 |v5:6_st|)) (* 19.0 (rval2 |v5:6_st|))) ?x90) ?x1670)))
 (let ((?x2439 (+ (+ (+ (* (- 6.0) |v10:1|) (* 13.0 |v0:11|)) (* 20.0 |v1:10|)) (* (- 6.0) |v11:0|))))
 (let ((?x3179 (- 9.0)))
 (let ((?x458 (+ (+ (* ?x581 |v2:9|) (* 5.0 (rval2 |v4:7_st|))) (* 18.0 (rval2 |v4:7_st|)))))
 (let ((?x991 (+ (+ (+ (* ?x2583 (rval2 |v7:4_st|)) (* (- 8.0) |v10:1|)) (* 6.0 |v9:2|)) (* 4.0 |v9:2|))))
 (let ((?x1021 (- 15.0)))
 (let ((?x2949 (- 11.0)))
 (let ((?x3054 (* ?x2949 |v3:8|)))
 (let ((?x928 (+ (+ (+ (* 16.0 (rval2 |v4:7_st|)) (* (- 17.0) |v11:0|)) ?x3054) (* (- 7.0) |v11:0|))))
 (let ((?x355 (- 13.0)))
 (let ((?x502 (* ?x355 |v2:9|)))
 (let ((?x2031 (+ (+ (* 2.0 |v10:1|) (* (- 17.0) (rval2 |v5:6_st|))) (* 16.0 (rval2 |v5:6_st|)))))
 (let (($x3200 (and (and (<= (+ ?x2031 ?x502) ?x2583) (<= ?x928 ?x1021)) (and (<= ?x991 2.0) (<= (+ ?x458 (* ?x2583 |v8:3|)) ?x3179)))))
 (let (($x1321 (and $x3200 (or (and (<= ?x2439 ?x2583) (<= ?x1726 ?x2583)) (<= ?x2100 16.0)))))
 (let ((?x760 (rval2 |v7:4_st|)))
 (let ((?x897 (* 3.0 ?x760)))
 (let ((?x1352 (+ (+ (+ (* 5.0 |v11:0|) (* 5.0 ?x760)) (* (- 19.0) |v3:8|)) ?x897)))
 (let ((?x977 (* 0.0 |v2:9|)))
 (let (($x3120 (<= (+ (+ (+ (* 2.0 |v3:8|) (* 14.0 |v8:3|)) (* 10.0 |v2:9|)) ?x977) 10.0)))
 (let ((?x609 (* 14.0 |v8:3|)))
 (let (($x1509 (<= (+ (+ (+ (* 20.0 |v8:3|) (* ?x3179 |v2:9|)) (* 12.0 |v8:3|)) ?x609) 0.0)))
 (let ((?x1317 (* 12.0 |v9:2|)))
 (let ((?x468 (rval2 |v4:7_st|)))
 (let ((?x1099 (* 17.0 ?x468)))
 (let (($x1931 (<= (+ (+ (+ (* ?x355 (rval2 |v5:6_st|)) (* 4.0 |v1:10|)) ?x1099) ?x1317) 20.0)))
 (let (($x2079 (<= (+ (+ (+ (* 0.0 ?x934) (* 0.0 |v0:11|)) (* ?x2949 ?x760)) ?x1670) 5.0)))
 (let ((?x2329 (- 12.0)))
 (let (($x1416 (<= (+ (+ (+ ?x934 (* 5.0 |v1:10|)) (* (- 4.0) |v2:9|)) (* ?x355 ?x468)) ?x2329)))
 (let (($x3042 (and $x1416 (or (or (or (or $x2079 $x1931) (or $x1509 $x3120)) (<= ?x1352 15.0)) $x1321))))
 (let ((?x45 (* 2.0 |v0:11|)))
 (let (($x160 (<= (+ (+ (+ (* 0.0 ?x468) (* ?x581 ?x760)) (* (- 17.0) |v1:10|)) ?x45) ?x355)))
 (let ((?x1841 (* 19.0 ?x468)))
 (let (($x2186 (<= (+ (+ (+ (* 14.0 |v1:10|) (* ?x2583 ?x468)) (* 9.0 |v10:1|)) ?x1841) 8.0)))
 (let ((?x1513 (- 14.0)))
 (let ((?x2372 (+ (+ (+ (* (- 4.0) ?x934) (* 16.0 ?x468)) (* 0.0 ?x468)) ?x897)))
 (let ((?x1034 (- 7.0)))
 (let ((?x50 (* ?x1034 |v2:9|)))
 (let ((?x514 (+ (+ (+ (* 11.0 |v8:3|) (* 7.0 |v0:11|)) (* (- 1.0) |v0:11|)) ?x50)))
 (let ((?x1511 (+ (+ (+ (* (- 20.0) |v8:3|) (* ?x1021 |v0:11|)) (* 20.0 ?x760)) (* 19.0 |v9:2|))))
 (let ((?x1278 (- 18.0)))
 (let (($x203 (<= (+ (+ (+ (* (- 8.0) |v2:9|) (* ?x2949 |v10:1|)) |v9:2|) (* 20.0 |v1:10|)) ?x1278)))
 (let ((?x729 (* 3.0 |v3:8|)))
 (let (($x1516 (<= (+ (+ (+ (* ?x1278 ?x760) (* (- 1.0) |v8:3|)) (* 15.0 |v0:11|)) ?x729) ?x1021)))
 (let ((?x759 (+ (+ (+ (* 10.0 ?x934) |v2:9|) (* 15.0 |v11:0|)) (* (- 1.0) |v9:2|))))
 (let (($x1254 (and (or (or (<= ?x759 11.0) $x1516) (or $x203 (<= ?x1511 ?x2329))) (or (and (<= ?x514 12.0) (<= ?x2372 ?x1513)) (and $x2186 $x160)))))
 (let ((?x414 (* 11.0 |v10:1|)))
 (let ((?x1510 (+ (+ (+ (* ?x581 (rval2 |v5:6_st|)) (* ?x1021 |v1:10|)) (* 0.0 |v10:1|)) ?x414)))
 (let ((?x737 (+ (+ (+ (* 10.0 |v8:3|) (* ?x355 |v3:8|)) (* ?x1021 ?x468)) (* ?x581 |v11:0|))))
 (let ((?x2270 (* ?x2949 |v1:10|)))
 (let ((?x1486 (+ (+ (+ (* (- 1.0) (rval2 |v5:6_st|)) (* 5.0 |v8:3|)) (* 12.0 |v2:9|)) ?x2270)))
 (let ((?x311 (+ (+ (+ (* 9.0 |v3:8|) (* (- 17.0) (rval2 |v5:6_st|))) (* 5.0 |v9:2|)) (* 14.0 (rval2 |v5:6_st|)))))
 (let (($x381 (or (and (<= ?x311 8.0) (<= ?x1486 2.0)) (and (<= ?x737 ?x2329) (<= ?x1510 ?x2949)))))
 (let ((?x1084 (* 2.0 |v2:9|)))
 (let ((?x2484 (+ (+ (+ (* (- 8.0) |v9:2|) (* 11.0 |v0:11|)) (* 5.0 |v8:3|)) ?x1084)))
 (let ((?x1987 (* ?x1021 |v2:9|)))
 (let ((?x2666 (+ (+ (+ (* (- 17.0) ?x934) (* (- 1.0) |v8:3|)) (* 4.0 |v2:9|)) ?x1987)))
 (let ((?x2152 (+ (+ (+ (* 14.0 |v3:8|) (* ?x1513 |v10:1|)) (* ?x1034 |v9:2|)) (* 14.0 |v10:1|))))
 (let (($x1272 (<= (+ (+ (+ (* 7.0 |v0:11|) ?x2270) (* ?x2949 |v0:11|)) (* ?x1034 |v0:11|)) ?x581)))
 (let (($x1641 (or (or $x1272 (<= ?x2152 17.0)) (or (<= ?x2666 2.0) (<= ?x2484 16.0)))))
 (let ((?x207 (- 1.0)))
 (let ((?x2159 (* ?x207 |v3:8|)))
 (let ((?x2370 (+ (+ (+ (* 14.0 |v1:10|) (* 10.0 ?x760)) (* (- 19.0) ?x468)) ?x2159)))
 (let ((?x1329 (+ (+ (+ (* ?x207 |v11:0|) (* (- 3.0) |v9:2|)) (* (- 8.0) |v10:1|)) (* ?x3179 |v9:2|))))
 (let ((?x2105 (- 4.0)))
 (let ((?x1420 (* 16.0 ?x468)))
 (let (($x295 (<= (+ (+ (+ (* ?x2329 |v11:0|) (* 14.0 ?x760)) (* (- 20.0) |v1:10|)) ?x1420) ?x2105)))
 (let ((?x574 (- 3.0)))
 (let ((?x3195 (+ (+ (+ (* ?x581 |v9:2|) (* (- 10.0) |v9:2|)) (* 9.0 |v11:0|)) (* 18.0 |v11:0|))))
 (let ((?x1343 (* ?x1278 |v0:11|)))
 (let ((?x1120 (+ (+ (+ (* 9.0 ?x934) (* (- 8.0) |v0:11|)) (* 19.0 |v8:3|)) ?x1343)))
 (let ((?x315 (+ (+ (* (- 17.0) ?x760) (* ?x2105 |v1:10|)) (* (- 2.0) (rval2 |v5:6_st|)))))
 (let (($x1683 (and (and (<= (+ ?x315 (* 9.0 (rval2 |v5:6_st|))) ?x1021) (<= ?x1120 ?x2329)) (and (<= ?x3195 ?x574) $x295))))
 (let (($x2766 (or (or (or $x1683 (<= ?x1329 18.0)) (<= ?x2370 10.0)) (or (and $x1641 $x381) $x1254))))
 (let (($x3027 (not (= |v4:7_st| (RMk1 val!4271)))))
 (let (($x820 (not (= |v5:6_st| (RMk1 val!4270)))))
 (let (($x1286 (not (= |v6:5_st| (RMk1 val!4269)))))
 (let (($x2483 (not (= |v7:4_st| (RMk1 val!4268)))))
 (and $x2483 $x1286 $x820 $x3027 (and $x2766 $x3042)))))))))))))))))))))))))))))))))))))))))))))))))))))))))))))))))))))))))))))))))))))))
 )
 )
 )
 )
 )
 )
 )
 )
 )
 )
 )
 )
(check-sat)
